Route #1: 31 7 43 11 27 2 18 32 8 20 38 16 35 40 17 9 24 15 39 29 13 10 3 37
Route #2: 33 12 4 23 14 25
Route #3: 21 34 6 19
Route #4: 5 26 36 41 42 28 30
Route #5: 1 22
Route #6: 
cost 1404.8204581083123
